p cnf 436 632
-62 -94 -59 119 0
-62 -94 -59 -119 0
-56 -10 -12 120 0
-56 -10 -12 -120 0
-15 74 111 121 0
-15 74 111 -121 0
-90 9 91 122 0
-90 9 91 -122 0
71 33 64 123 0
71 33 64 -123 0
-103 84 69 124 0
-103 84 69 -124 0
-9 -90 -91 125 0
-9 -90 -91 -125 0
-68 -3 16 126 0
-68 -3 16 -126 0
-101 61 -72 127 0
-101 61 -72 -127 0
4 -85 2 128 0
4 -85 2 -128 0
-69 19 75 129 0
-69 19 75 -129 0
-108 13 -34 130 0
-108 13 -34 -130 0
-22 105 16 131 0
-22 105 16 -131 0
-35 -53 89 132 0
-35 -53 89 -132 0
96 104 15 133 0
96 104 15 -133 0
-4 -85 -2 134 0
-4 -85 -2 -134 0
115 -66 92 135 0
115 -66 92 -135 0
1 66 21 136 0
1 66 21 -136 0
103 5 76 137 0
103 5 76 -137 0
-73 78 -102 138 0
-73 78 -102 -138 0
-5 23 -25 139 0
-5 23 -25 -139 0
-93 -78 -109 140 0
-93 -78 -109 -140 0
114 -30 77 141 0
114 -30 77 -141 0
7 70 -83 142 0
7 70 -83 -142 0
-17 41 1 143 0
-17 41 1 -143 0
-89 35 -53 144 0
-89 35 -53 -144 0
-106 -99 49 145 0
-106 -99 49 -145 0
100 33 88 146 0
100 33 88 -146 0
43 -26 -40 147 0
43 -26 -40 -147 0
-95 3 -45 148 0
-95 3 -45 -148 0
61 -60 27 149 0
61 -60 27 -149 0
-88 91 -44 150 0
-88 91 -44 -150 0
28 -34 98 151 0
28 -34 98 -151 0
18 82 29 152 0
18 82 29 -152 0
-12 99 39 153 0
-12 99 39 -153 0
19 60 -22 154 0
19 60 -22 -154 0
-51 50 63 155 0
-51 50 63 -155 0
-11 -10 108 156 0
-11 -10 108 -156 0
62 -94 59 157 0
62 -94 59 -157 0
-90 -8 -112 158 0
-90 -8 -112 -158 0
-86 -81 24 159 0
-86 -81 24 -159 0
-32 118 111 160 0
-32 118 111 -160 0
-97 -47 -20 161 0
-97 -47 -20 -161 0
-85 29 42 162 0
-85 29 42 -162 0
-107 -54 163 164 0
-107 -54 163 -164 0
-107 -54 -163 165 0
-107 -54 -163 -165 0
-30 -77 -114 166 0
-30 -77 -114 -166 0
47 97 -20 167 0
47 97 -20 -167 0
-46 87 -72 168 0
-46 87 -72 -168 0
-12 -99 -39 169 0
-12 -99 -39 -169 0
-46 -87 72 170 0
-46 -87 72 -170 0
-33 -64 71 171 0
-33 -64 71 -171 0
-92 115 66 172 0
-92 115 66 -172 0
-96 55 58 173 0
-96 55 58 -173 0
-48 -36 -4 174 0
-48 -36 -4 -174 0
-105 -112 -42 175 0
-105 -112 -42 -175 0
78 109 -93 176 0
78 109 -93 -176 0
-116 89 -58 177 0
-116 89 -58 -177 0
31 -39 92 178 0
31 -39 92 -178 0
81 45 26 179 0
81 45 26 -179 0
5 -76 -103 180 0
5 -76 -103 -180 0
-118 117 28 181 0
-118 117 28 -181 0
64 -47 -49 182 0
64 -47 -49 -182 0
-55 -113 57 183 0
-55 -113 57 -183 0
-111 -32 -118 184 0
-111 -32 -118 -184 0
-10 56 12 185 0
-10 56 12 -185 0
-100 67 -117 186 0
-100 67 -117 -186 0
-112 105 42 187 0
-112 105 42 -187 0
-50 79 -31 188 0
-50 79 -31 -188 0
-75 69 19 189 0
-75 69 19 -189 0
-45 -81 26 190 0
-45 -81 26 -190 0
99 -106 -49 191 0
99 -106 -49 -191 0
103 84 -69 192 0
103 84 -69 -192 0
16 3 68 193 0
16 3 68 -193 0
57 55 113 194 0
57 55 113 -194 0
-114 -36 46 195 0
-114 -36 46 -195 0
-53 -97 -44 196 0
-53 -97 -44 -196 0
-14 62 -87 197 0
-14 62 -87 -197 0
52 25 82 198 0
52 25 82 -198 0
59 70 27 199 0
59 70 27 -199 0
93 -107 -37 200 0
93 -107 -37 -200 0
-98 76 -37 201 0
-98 76 -37 -201 0
101 -72 -61 202 0
101 -72 -61 -202 0
34 -98 28 203 0
34 -98 28 -203 0
73 102 78 204 0
73 102 78 -204 0
25 -5 -23 205 0
25 -5 -23 -205 0
-65 68 18 206 0
-65 68 18 -206 0
105 112 -42 207 0
105 112 -42 -207 0
-73 -80 -41 208 0
-73 -80 -41 -208 0
-38 13 -6 209 0
-38 13 -6 -209 0
46 72 87 210 0
46 72 87 -210 0
83 70 -7 211 0
83 70 -7 -211 0
95 45 3 212 0
95 45 3 -212 0
-12 56 10 213 0
-12 56 10 -213 0
-83 -74 -80 214 0
-83 -74 -80 -214 0
-73 -78 102 215 0
-73 -78 102 -215 0
-96 -104 15 216 0
-96 -104 15 -216 0
31 50 79 217 0
31 50 79 -217 0
85 -2 4 218 0
85 -2 4 -218 0
71 63 43 219 0
71 63 43 -219 0
53 -35 -89 220 0
53 -35 -89 -220 0
8 -90 112 221 0
8 -90 112 -221 0
116 58 89 222 0
116 58 89 -222 0
-23 -25 5 223 0
-23 -25 5 -223 0
-54 95 -21 224 0
-54 95 -21 -224 0
-7 -106 101 225 0
-7 -106 101 -225 0
57 -2 -77 226 0
57 -2 -77 -226 0
-27 70 -59 227 0
-27 70 -59 -227 0
80 41 -73 228 0
80 41 -73 -228 0
111 32 -118 229 0
111 32 -118 -229 0
54 107 230 231 0
54 107 230 -231 0
54 107 -230 232 0
54 107 -230 -232 0
-22 -16 -105 233 0
-22 -16 -105 -233 0
86 -81 -24 234 0
86 -81 -24 -234 0
-39 99 12 235 0
-39 99 12 -235 0
63 51 -50 236 0
63 51 -50 -236 0
99 49 106 237 0
99 49 106 -237 0
-14 -40 102 238 0
-14 -40 102 -238 0
110 -84 -35 239 0
110 -84 -35 -239 0
-62 94 59 240 0
-62 94 59 -240 0
113 -9 -23 241 0
113 -9 -23 -241 0
77 -2 -57 242 0
77 -2 -57 -242 0
-115 66 92 243 0
-115 66 92 -243 0
88 -33 -100 244 0
88 -33 -100 -244 0
24 -75 94 245 0
24 -75 94 -245 0
97 -53 44 246 0
97 -53 44 -246 0
67 -17 -79 247 0
67 -17 -79 -247 0
-15 104 -96 248 0
-15 104 -96 -248 0
-67 -17 79 249 0
-67 -17 79 -249 0
-110 35 -84 250 0
-110 35 -84 -250 0
-106 -101 7 251 0
-106 -101 7 -251 0
-84 -69 -103 252 0
-84 -69 -103 -252 0
52 -82 -25 253 0
52 -82 -25 -253 0
-37 -93 107 254 0
-37 -93 107 -254 0
-3 95 -45 255 0
-3 95 -45 -255 0
-103 -5 76 256 0
-103 -5 76 -256 0
-27 -61 -60 257 0
-27 -61 -60 -257 0
16 -105 22 258 0
16 -105 22 -258 0
31 -79 -50 259 0
31 -79 -50 -259 0
-95 -21 54 260 0
-95 -21 54 -260 0
44 -88 -91 261 0
44 -88 -91 -261 0
80 73 -41 262 0
80 73 -41 -262 0
-52 -48 110 263 0
-52 -48 110 -263 0
-41 -1 -17 264 0
-41 -1 -17 -264 0
-111 32 118 265 0
-111 32 118 -265 0
17 -1 41 266 0
17 -1 41 -266 0
-52 -110 48 267 0
-52 -110 48 -267 0
5 23 25 268 0
5 23 25 -268 0
15 111 -74 269 0
15 111 -74 -269 0
-56 -11 104 270 0
-56 -11 104 -270 0
108 13 34 271 0
108 13 34 -271 0
108 11 10 272 0
108 11 10 -272 0
-1 66 -21 273 0
-1 66 -21 -273 0
-88 33 -100 274 0
-88 33 -100 -274 0
-83 -7 -70 275 0
-83 -7 -70 -275 0
-44 -91 88 276 0
-44 -91 88 -276 0
49 47 64 277 0
49 47 64 -277 0
-31 39 92 278 0
-31 39 92 -278 0
-117 -28 -118 279 0
-117 -28 -118 -279 0
118 -117 28 280 0
118 -117 28 -280 0
62 94 -59 281 0
62 94 -59 -281 0
-70 -27 59 282 0
-70 -27 59 -282 0
-99 106 -49 283 0
-99 106 -49 -283 0
101 61 72 284 0
101 61 72 -284 0
9 -23 -113 285 0
9 -23 -113 -285 0
-71 -43 63 286 0
-71 -43 63 -286 0
98 -76 -37 287 0
98 -76 -37 -287 0
90 -91 9 288 0
90 -91 9 -288 0
35 110 84 289 0
35 110 84 -289 0
-56 12 10 290 0
-56 12 10 -290 0
77 57 2 291 0
77 57 2 -291 0
91 44 88 292 0
91 44 88 -292 0
-97 53 44 293 0
-97 53 44 -293 0
34 -108 -13 294 0
34 -108 -13 -294 0
-54 -95 21 295 0
-54 -95 21 -295 0
74 -80 83 296 0
74 -80 83 -296 0
32 86 -51 297 0
32 86 -51 -297 0
-57 55 -113 298 0
-57 55 -113 -298 0
96 58 -55 299 0
96 58 -55 -299 0
-76 37 -98 300 0
-76 37 -98 -300 0
-40 14 -102 301 0
-40 14 -102 -301 0
62 87 14 302 0
62 87 14 -302 0
-36 48 4 303 0
-36 48 4 -303 0
-63 43 -71 304 0
-63 43 -71 -304 0
109 30 -20 305 0
109 30 -20 -305 0
-64 -71 33 306 0
-64 -71 33 -306 0
78 93 -109 307 0
78 93 -109 -307 0
-44 53 97 308 0
-44 53 97 -308 0
23 113 9 309 0
23 113 9 -309 0
-87 -72 46 310 0
-87 -72 46 -310 0
-51 -50 -63 311 0
-51 -50 -63 -311 0
49 -64 -47 312 0
49 -64 -47 -312 0
82 -29 -18 313 0
82 -29 -18 -313 0
-99 12 39 314 0
-99 12 39 -314 0
-26 -43 40 315 0
-26 -43 40 -315 0
-36 114 -46 316 0
-36 114 -46 -316 0
90 112 -8 317 0
90 112 -8 -317 0
60 -61 27 318 0
60 -61 27 -318 0
6 -38 -13 319 0
6 -38 -13 -319 0
104 11 56 320 0
104 11 56 -320 0
67 100 117 321 0
67 100 117 -321 0
-46 36 -114 322 0
-46 36 -114 -322 0
93 -78 109 323 0
93 -78 109 -323 0
50 -79 -31 324 0
50 -79 -31 -324 0
7 -70 83 325 0
7 -70 83 -325 0
-84 103 69 326 0
-84 103 69 -326 0
81 -86 -24 327 0
81 -86 -24 -327 0
-51 -86 -32 328 0
-51 -86 -32 -328 0
-115 -92 -66 329 0
-115 -92 -66 -329 0
-75 -19 -69 330 0
-75 -19 -69 -330 0
-112 90 8 331 0
-112 90 8 -331 0
-62 -87 14 332 0
-62 -87 14 -332 0
-110 -35 84 333 0
-110 -35 84 -333 0
101 7 106 334 0
101 7 106 -334 0
19 -60 22 335 0
19 -60 22 -335 0
-58 116 -89 336 0
-58 116 -89 -336 0
8 -38 -6 337 0
8 -38 -6 -337 0
20 -30 109 338 0
20 -30 109 -338 0
-3 -16 68 339 0
-3 -16 68 -339 0
-15 -104 96 340 0
-15 -104 96 -340 0
-80 41 73 341 0
-80 41 73 -341 0
-116 58 -89 342 0
-116 58 -89 -342 0
39 31 -92 343 0
39 31 -92 -343 0
85 -29 42 344 0
85 -29 42 -344 0
50 51 -63 345 0
50 51 -63 -345 0
-77 30 114 346 0
-77 30 114 -346 0
-104 56 -11 347 0
-104 56 -11 -347 0
3 -68 -16 348 0
3 -68 -16 -348 0
91 90 -9 349 0
91 90 -9 -349 0
-21 -66 1 350 0
-21 -66 1 -350 0
-58 -96 -55 351 0
-58 -96 -55 -351 0
45 -81 -26 352 0
45 -81 -26 -352 0
-95 -3 45 353 0
-95 -3 45 -353 0
-110 -48 52 354 0
-110 -48 52 -354 0
-28 98 34 355 0
-28 98 34 -355 0
-16 22 105 356 0
-16 22 105 -356 0
65 -68 18 357 0
65 -68 18 -357 0
-27 61 60 358 0
-27 61 60 -358 0
73 -78 -102 359 0
73 -78 -102 -359 0
-59 -70 27 360 0
-59 -70 27 -360 0
83 -74 80 361 0
83 -74 80 -361 0
-4 36 48 362 0
-4 36 48 -362 0
-34 -28 -98 363 0
-34 -28 -98 -363 0
4 36 -48 364 0
4 36 -48 -364 0
55 -58 96 365 0
55 -58 96 -365 0
116 115 65 366 0
116 115 65 -366 0
65 -116 -115 367 0
65 -116 -115 -367 0
-28 118 117 368 0
-28 118 117 -368 0
38 13 6 369 0
38 13 6 -369 0
100 -88 -33 370 0
100 -88 -33 -370 0
47 -49 -64 371 0
47 -49 -64 -371 0
-14 -62 87 372 0
-14 -62 87 -372 0
38 -8 -6 373 0
38 -8 -6 -373 0
-105 42 112 374 0
-105 42 112 -374 0
14 40 102 375 0
14 40 102 -375 0
-65 -18 -68 376 0
-65 -18 -68 -376 0
35 53 89 377 0
35 53 89 -377 0
37 76 98 378 0
37 76 98 -378 0
86 24 81 379 0
86 24 81 -379 0
-41 1 17 380 0
-41 1 17 -380 0
20 -109 30 381 0
20 -109 30 -381 0
-101 72 -61 382 0
-101 72 -61 -382 0
-67 17 -79 383 0
-67 17 -79 -383 0
117 -67 -100 384 0
117 -67 -100 -384 0
-15 -111 -74 385 0
-15 -111 -74 -385 0
-94 -24 -75 386 0
-94 -24 -75 -386 0
-93 -107 37 387 0
-93 -107 37 -387 0
-42 -85 -29 388 0
-42 -85 -29 -388 0
-108 -11 10 389 0
-108 -11 10 -389 0
-20 -109 -30 390 0
-20 -109 -30 -390 0
-77 -57 2 391 0
-77 -57 2 -391 0
8 6 38 392 0
8 6 38 -392 0
75 69 -19 393 0
75 69 -19 -393 0
-38 6 -8 394 0
-38 6 -8 -394 0
75 -94 24 395 0
75 -94 24 -395 0
-83 74 80 396 0
-83 74 80 -396 0
-22 -19 -60 397 0
-22 -19 -60 -397 0
74 -111 15 398 0
74 -111 15 -398 0
-97 20 47 399 0
-97 20 47 -399 0
-39 -92 -31 400 0
-39 -92 -31 -400 0
107 37 93 401 0
107 37 93 -401 0
-114 77 30 402 0
-114 77 30 -402 0
43 40 26 403 0
43 40 26 -403 0
95 21 54 404 0
95 21 54 -404 0
-42 85 29 405 0
-42 85 29 -405 0
-29 18 -82 406 0
-29 18 -82 -406 0
-24 94 75 407 0
-24 94 75 -407 0
115 -65 -116 408 0
115 -65 -116 -408 0
-33 64 -71 409 0
-33 64 -71 -409 0
-66 21 -1 410 0
-66 21 -1 -410 0
-13 108 -34 411 0
-13 108 -34 -411 0
-63 71 -43 412 0
-63 71 -43 -412 0
-19 60 22 413 0
-19 60 22 -413 0
-113 23 -9 414 0
-113 23 -9 -414 0
20 -47 97 415 0
20 -47 97 -415 0
36 114 46 416 0
36 114 46 -416 0
32 -86 51 417 0
32 -86 51 -417 0
-52 82 -25 418 0
-52 82 -25 -418 0
-5 -76 103 419 0
-5 -76 103 -419 0
48 52 110 420 0
48 52 110 -420 0
113 -55 -57 421 0
113 -55 -57 -421 0
-101 106 -7 422 0
-101 106 -7 -422 0
67 17 79 423 0
67 17 79 -423 0
-67 -117 100 424 0
-67 -117 100 -424 0
-26 81 -45 425 0
-26 81 -45 -425 0
11 -104 -56 426 0
11 -104 -56 -426 0
25 -52 -82 427 0
25 -52 -82 -427 0
51 86 -32 428 0
51 86 -32 -428 0
-14 -102 40 429 0
-14 -102 40 -429 0
-10 11 -108 430 0
-10 11 -108 -430 0
-4 85 2 431 0
-4 85 2 -431 0
116 -65 -115 432 0
116 -65 -115 -432 0
-6 -13 38 433 0
-6 -13 38 -433 0
29 -18 -82 434 0
29 -18 -82 -434 0
-40 -43 26 435 0
-40 -43 26 -435 0
68 -18 65 436 0
68 -18 65 -436 0

